NAME : sim71.90984.tour
COMMENT : Length = 90984
COMMENT : Found by LKH [Keld Helsgaun] Sat Sep 15 16:30:47 2018
TYPE : TOUR
DIMENSION : 71
TOUR_SECTION
1
28
67
39
12
46
51
8
33
41
53
19
21
24
2
65
69
16
57
32
26
4
10
48
71
22
23
30
66
64
15
55
42
58
54
37
63
61
35
27
5
6
11
29
60
25
59
20
14
56
50
9
3
13
7
47
38
62
44
68
40
18
36
43
17
49
70
52
45
34
31
-1
EOF
